% File represents an instance of a Composite Structure problem to be solved by a CP framework
% Created on 2025-03-25 14:06:10.301
T = 38;
n = 4;
m = 4;
edges = [(1, 2),
(4, 3),
(1, 3),
(2, 4)];
counts = [|8, 8, 8, 14,
|8, 6, 8, 14,
|8, 4, 8, 8,
|8, 6, 8, 8|];
